data/solutions/recovery/degenerate/intermediate/binding/degenerate_intermediate_instance21/80.sol
Elapsed time: 0.04
Upper bound: inf
Planning weighted value: 1.02354553417e+11
C[0]=31753578.0
C[1]=31540989.0
C[2]=29300969.0
C[3]=28698502.9969
C[4]=28319889.0
C[5]=28104380.0
C[6]=27134758.9389
C[7]=26118515.0642
C[8]=25512102.0
C[9]=24514862.0
C[10]=0.0
C[11]=0.0
y[0]=4
y[1]=0
y[2]=9
y[3]=2
y[4]=3
y[5]=9
y[6]=6
y[7]=6
y[8]=1
y[9]=4
y[10]=9
y[11]=0
y[12]=4
y[13]=4
y[14]=5
y[15]=3
y[16]=0
y[17]=2
y[18]=6
y[19]=7
y[20]=1
y[21]=4
y[22]=1
y[23]=4
y[24]=4
y[25]=2
y[26]=7
y[27]=0
y[28]=6
y[29]=7
y[30]=8
y[31]=3
y[32]=4
y[33]=6
y[34]=0
y[35]=1
y[36]=8
y[37]=4
y[38]=2
y[39]=7
y[40]=5
y[41]=1
y[42]=7
y[43]=2
y[44]=3
y[45]=1
y[46]=4
y[47]=3
y[48]=8
y[49]=1
y[50]=5
y[51]=2
y[52]=5
y[53]=5
y[54]=6
y[55]=2
y[56]=0
y[57]=8
y[58]=8
y[59]=4
y[60]=9
y[61]=2
y[62]=2
y[63]=6
y[64]=3
