data/solutions/recovery/degenerate/intermediate/binding/degenerate_intermediate_instance21/80.log

Log started (V12.6.3.0) Sun Apr 22 12:29:13 2018

New value for default parallel thread count: 1

Problem '/tmp/tmpnics2Q.pyomo.lp' read.
Read time = 0.01 sec. (0.51 ticks)

Problem name         : /tmp/tmpnics2Q.pyomo.lp
Objective sense      : Minimize
Variables            :     794  [Nneg: 1,  Binary: 780,  General Integer: 13]
Objective nonzeros   :       1
Linear constraints   :     157  [Less: 77,  Equal: 80]
  Nonzeros           :   36011
  RHS nonzeros       :      66

Variables            : Min LB: 0.000000         Max UB: 1.000000       
Objective nonzeros   : Min   : 1.000000         Max   : 1.000000       
Linear constraints   :
  Nonzeros           : Min   : 1.000000         Max   : 8298339.       
  RHS nonzeros       : Min   : 1.000000         Max   : 1.000000       
Tried aggregator 2 times.
MIP Presolve eliminated 122 rows and 633 columns.
Aggregator did 10 substitutions.
Reduced MIP has 25 rows, 151 columns, and 310 nonzeros.
Reduced MIP has 150 binaries, 1 generals, 0 SOSs, and 0 indicators.
Presolve time = 0.00 sec. (2.86 ticks)
Found incumbent of value 7.2129504e+07 after 0.01 sec. (3.79 ticks)
Probing time = 0.00 sec. (0.14 ticks)
Tried aggregator 1 time.
Reduced MIP has 25 rows, 151 columns, and 310 nonzeros.
Reduced MIP has 150 binaries, 1 generals, 0 SOSs, and 0 indicators.
Presolve time = 0.00 sec. (0.24 ticks)
Probing time = 0.00 sec. (0.14 ticks)
Clique table members: 15.
MIP emphasis: balance optimality and feasibility.
MIP search method: dynamic search.
Parallel mode: none, using 1 thread.
Root relaxation solution time = 0.00 sec. (0.21 ticks)

        Nodes                                         Cuts/
   Node  Left     Objective  IInf  Best Integer    Best Bound    ItCnt     Gap

*     0+    0                       7.21295e+07   2.81044e+07            61.04%
      0     0   2.81044e+07    13   7.21295e+07   2.81044e+07       39   61.04%
*     0+    0                       3.38374e+07   2.81044e+07            16.94%
      0     0   2.83162e+07    18   3.38374e+07      Cuts: 12      103   16.32%
*     0+    0                       3.30345e+07   2.83162e+07            14.28%
      0     0   2.83164e+07    18   3.30345e+07    MIRcuts: 1      106   14.28%
*     0+    0                       3.25226e+07   2.83164e+07            12.93%
      0     0   2.83977e+07    16   3.25226e+07   ZeroHalf: 3      114   12.68%
*     0+    0                       3.24501e+07   2.83977e+07            12.49%
*     0+    0                       3.19570e+07   2.83977e+07            11.14%
*     0+    0                       3.19024e+07   2.83977e+07            10.99%

Repeating presolve.
Tried aggregator 1 time.
MIP Presolve eliminated 0 rows and 38 columns.
Reduced MIP has 25 rows, 113 columns, and 234 nonzeros.
Reduced MIP has 112 binaries, 1 generals, 0 SOSs, and 0 indicators.
Presolve time = 0.00 sec. (0.18 ticks)
Probing time = 0.00 sec. (0.11 ticks)
Tried aggregator 1 time.
Reduced MIP has 25 rows, 113 columns, and 234 nonzeros.
Reduced MIP has 112 binaries, 1 generals, 0 SOSs, and 0 indicators.
Presolve time = 0.00 sec. (0.17 ticks)
Represolve time = 0.00 sec. (0.73 ticks)
Probing time = 0.00 sec. (0.11 ticks)
Clique table members: 35.
MIP emphasis: balance optimality and feasibility.
MIP search method: dynamic search.
Parallel mode: none, using 1 thread.
Root relaxation solution time = 0.00 sec. (0.13 ticks)

        Nodes                                         Cuts/
   Node  Left     Objective  IInf  Best Integer    Best Bound    ItCnt     Gap

*     0+    0                       3.19024e+07   2.83977e+07            10.99%
      0     0   2.91854e+07    12   3.19024e+07   2.91854e+07      135    8.52%
      0     0   2.98467e+07     7   3.19024e+07       Cuts: 3      145    6.44%
      0     0   3.02554e+07    11   3.19024e+07       Cuts: 3      153    5.16%
      0     0   3.02585e+07     9   3.19024e+07     Covers: 1      154    5.15%
      0     0   3.02864e+07    12   3.19024e+07     Covers: 1      155    5.07%
      0     0   3.17536e+07     1   3.19024e+07       Cuts: 4      157    0.47%
      0     1   3.17536e+07     1   3.19024e+07   3.17536e+07      157    0.47%
Elapsed time = 0.02 sec. (11.51 ticks, tree = 0.01 MB, solutions = 7)
*     1     0      integral     0   3.17536e+07   3.17536e+07      157    0.00%

Clique cuts applied:  2
Cover cuts applied:  3
Zero-half cuts applied:  3
Gomory fractional cuts applied:  1
Warning: integer solution contains unscaled infeasibilities.

Root node processing (before b&c):
  Real time             =    0.02 sec. (11.56 ticks)
Sequential b&c:
  Real time             =    0.00 sec. (0.06 ticks)
                          ------------
Total (root+branch&cut) =    0.02 sec. (11.62 ticks)

Solution pool: 8 solutions saved.

Maximum unscaled integer infeasibility = 0.0642242.
MIP - Integer optimal with unscaled infeasibilities:  Objective =  3.1753578000e+07
Solution time =    0.02 sec.  Iterations = 157  Nodes = 2
Deterministic time = 11.62 ticks  (626.41 ticks/sec)


Incumbent solution written to file '/tmp/tmpvrkSmd.cplex.sol'.
